problems/csplib-prob030/BalancedAcademicCurriculumProblem-models/compact/O0/minion/model-bacp-9-solution000001.eprime-solution
language ESSENCE' 1.0

letting curr_Function1D be
        [1, 1, 1, 1, 9, 8, 8, 8, 7, 7, 2, 7, 7, 2, 7, 7, 6, 6, 6, 4, 5, 5, 3, 5, 5, 5, 3, 5, 4, 9, 2, 10, 4, 2, 4, 4, 2,
         3, 3, 3, 2, 2, 2, 1, 1, 1, 1, 1, 10, 1;
             int(1..50)]
