problems/csplib-prob030/BalancedAcademicCurriculumProblem-models/compact/O0/minion/model-bacp-9-solution000001.solution
language Essence 1.3

letting curr be
        function(1 --> 1, 2 --> 1, 3 --> 1, 4 --> 1, 5 --> 9, 6 --> 8, 7 --> 8, 8 --> 8, 9 --> 7, 10 --> 7, 11 --> 2,
                 12 --> 7, 13 --> 7, 14 --> 2, 15 --> 7, 16 --> 7, 17 --> 6, 18 --> 6, 19 --> 6, 20 --> 4, 21 --> 5,
                 22 --> 5, 23 --> 3, 24 --> 5, 25 --> 5, 26 --> 5, 27 --> 3, 28 --> 5, 29 --> 4, 30 --> 9, 31 --> 2,
                 32 --> 10, 33 --> 4, 34 --> 2, 35 --> 4, 36 --> 4, 37 --> 2, 38 --> 3, 39 --> 3, 40 --> 3, 41 --> 2,
                 42 --> 2, 43 --> 2, 44 --> 1, 45 --> 1, 46 --> 1, 47 --> 1, 48 --> 1, 49 --> 10, 50 --> 1)
